177 138 197 149 213
163 134 195 127 204
142 173 153 196 161
110 114 117 119 156
136 188 124 171 170
191 150 175 183 175
148 161 173 134 205
191 105 198 154 214
198 101 109 172 227
110 146 181 150 146
114 135 153 154 187
166 167 199 229 188
160 125 170 174 221
199 150 158 195 149
142 154 179 232 165
143 180 207 185 247
109 200 168 176 157
142 190 201 128 204
113 182 127 160 153
120 117 126 120 143
